Running for instance ./models/r210.txt
Generating routes...
Execution time:  3.14241  seconds
Academic license - for non-commercial use only
Warning: constraint name "Cliente esta na rota x1" has a space
Optimize a model with 26 rows, 10000 columns and 81218 nonzeros
Variable types: 0 continuous, 10000 integer (0 binary)
Coefficient statistics:
  Matrix range     [1e+00, 1e+00]
  Objective range  [2e+01, 4e+02]
  Bounds range     [1e+00, 1e+00]
  RHS range        [1e+00, 2e+01]
Found heuristic solution: objective 898.4303827
Presolve removed 1 rows and 2871 columns
Presolve time: 0.07s
Presolved: 25 rows, 7129 columns, 53556 nonzeros
Found heuristic solution: objective 754.2473468
Variable types: 0 continuous, 7129 integer (7129 binary)

Root relaxation: objective 5.056584e+02, 87 iterations, 0.01 seconds

    Nodes    |    Current Node    |     Objective Bounds      |     Work
 Expl Unexpl |  Obj  Depth IntInf | Incumbent    BestBd   Gap | It/Node Time

     0     0  505.65835    0   22  754.24735  505.65835  33.0%     -    0s
H    0     0                     591.1513224  505.65835  14.5%     -    0s
     0     0  505.65835    0   22  591.15132  505.65835  14.5%     -    0s
H    0     0                     547.6805722  505.65835  7.67%     -    0s
     0     0  505.65835    0   22  547.68057  505.65835  7.67%     -    0s
     0     0  505.65835    0   22  547.68057  505.65835  7.67%     -    0s
     0     2  505.65835    0   22  547.68057  505.65835  7.67%     -    0s
*   63    25              15     542.2503573  523.09768  3.53%   9.3    0s
*  140    11              13     540.8102293  528.06573  2.36%   6.6    0s
*  162     0              13     536.4738381  535.14845  0.25%   5.8    0s

Explored 164 nodes (1122 simplex iterations) in 0.34 seconds
Thread count was 8 (of 8 available processors)

Solution count 6: 536.474 540.81 542.25 ... 754.247

Optimal solution found (tolerance 1.00e-04)
Best objective 5.364738380838e+02, best bound 5.364738380838e+02, gap 0.0000%

Routes:
13
18 8 17 5
2 15 23 25 24 1
16 14 6
7 19 11 10
22 21 3 9 20 12 4

Distance: 536.473838084
Execution time:  4.383673  seconds
